param n = 6;
param m = 4;


param f :=
1  5000000
2  2200000	
3  2200000	
4  2200000
;




param co :	1	2	3	4   :=
1  3.16 	3.3	3.36	2.18
2  3.16 	 3.3	3.24	1.84
3  1.84   2.88	2.96	3.16
4  2.02 	2.96	2.04	3.16
5  2.88	  1.84	2.02	3.36
6  2.98  	2.04	1.82	3.3
;


param p :=
1  10
2  10	
3  10	
4  10
; 


param h :=
1	500000
2	700000
3	900000
4	800000
5	1000000
6	600000
;


param ca :=
1  5000000	
2  2000000
3  2000000	
4  2000000
;

